c Generated map
c Size: 10 * 10, weights in range: 1 to 10, walls: False, with ratio 0.0
c dim 4 of 7
c
p sp 100 180
c graph contains 100 nodes and 180 arcs
c
a 1 11 3
a 11 1 3
a 1 2 1
a 2 1 1
a 2 12 6
a 12 2 6
a 2 3 1
a 3 2 1
a 3 13 1
a 13 3 1
a 3 4 4
a 4 3 4
a 4 14 10
a 14 4 10
a 4 5 8
a 5 4 8
a 5 15 9
a 15 5 9
a 5 6 8
a 6 5 8
a 6 16 2
a 16 6 2
a 6 7 6
a 7 6 6
a 7 17 10
a 17 7 10
a 7 8 8
a 8 7 8
a 8 18 9
a 18 8 9
a 8 9 7
a 9 8 7
a 9 19 3
a 19 9 3
a 9 10 1
a 10 9 1
a 10 20 1
a 20 10 1
a 11 21 2
a 21 11 2
a 11 12 8
a 12 11 8
a 12 22 10
a 22 12 10
a 12 13 3
a 13 12 3
a 13 23 9
a 23 13 9
a 13 14 10
a 14 13 10
a 14 24 7
a 24 14 7
a 14 15 4
a 15 14 4
a 15 25 2
a 25 15 2
a 15 16 10
a 16 15 10
a 16 26 2
a 26 16 2
a 16 17 10
a 17 16 10
a 17 27 8
a 27 17 8
a 17 18 2
a 18 17 2
a 18 28 2
a 28 18 2
a 18 19 8
a 19 18 8
a 19 29 8
a 29 19 8
a 19 20 3
a 20 19 3
a 20 30 9
a 30 20 9
a 21 31 7
a 31 21 7
a 21 22 6
a 22 21 6
a 22 32 7
a 32 22 7
a 22 23 2
a 23 22 2
a 23 33 10
a 33 23 10
a 23 24 10
a 24 23 10
a 24 34 7
a 34 24 7
a 24 25 3
a 25 24 3
a 25 35 3
a 35 25 3
a 25 26 8
a 26 25 8
a 26 36 9
a 36 26 9
a 26 27 1
a 27 26 1
a 27 37 9
a 37 27 9
a 27 28 8
a 28 27 8
a 28 38 4
a 38 28 4
a 28 29 4
a 29 28 4
a 29 39 9
a 39 29 9
a 29 30 2
a 30 29 2
a 30 40 3
a 40 30 3
a 31 41 3
a 41 31 3
a 31 32 9
a 32 31 9
a 32 42 5
a 42 32 5
a 32 33 8
a 33 32 8
a 33 43 10
a 43 33 10
a 33 34 5
a 34 33 5
a 34 44 10
a 44 34 10
a 34 35 2
a 35 34 2
a 35 45 3
a 45 35 3
a 35 36 9
a 36 35 9
a 36 46 1
a 46 36 1
a 36 37 5
a 37 36 5
a 37 47 5
a 47 37 5
a 37 38 7
a 38 37 7
a 38 48 1
a 48 38 1
a 38 39 1
a 39 38 1
a 39 49 8
a 49 39 8
a 39 40 7
a 40 39 7
a 40 50 1
a 50 40 1
a 41 51 8
a 51 41 8
a 41 42 5
a 42 41 5
a 42 52 8
a 52 42 8
a 42 43 5
a 43 42 5
a 43 53 3
a 53 43 3
a 43 44 10
a 44 43 10
a 44 54 6
a 54 44 6
a 44 45 4
a 45 44 4
a 45 55 10
a 55 45 10
a 45 46 1
a 46 45 1
a 46 56 1
a 56 46 1
a 46 47 9
a 47 46 9
a 47 57 2
a 57 47 2
a 47 48 10
a 48 47 10
a 48 58 1
a 58 48 1
a 48 49 9
a 49 48 9
a 49 59 10
a 59 49 10
a 49 50 5
a 50 49 5
a 50 60 7
a 60 50 7
a 51 61 8
a 61 51 8
a 51 52 10
a 52 51 10
a 52 62 3
a 62 52 3
a 52 53 10
a 53 52 10
a 53 63 3
a 63 53 3
a 53 54 5
a 54 53 5
a 54 64 9
a 64 54 9
a 54 55 9
a 55 54 9
a 55 65 4
a 65 55 4
a 55 56 2
a 56 55 2
a 56 66 9
a 66 56 9
a 56 57 10
a 57 56 10
a 57 67 1
a 67 57 1
a 57 58 10
a 58 57 10
a 58 68 1
a 68 58 1
a 58 59 2
a 59 58 2
a 59 69 5
a 69 59 5
a 59 60 3
a 60 59 3
a 60 70 6
a 70 60 6
a 61 71 2
a 71 61 2
a 61 62 2
a 62 61 2
a 62 72 10
a 72 62 10
a 62 63 9
a 63 62 9
a 63 73 10
a 73 63 10
a 63 64 4
a 64 63 4
a 64 74 1
a 74 64 1
a 64 65 9
a 65 64 9
a 65 75 6
a 75 65 6
a 65 66 5
a 66 65 5
a 66 76 6
a 76 66 6
a 66 67 8
a 67 66 8
a 67 77 5
a 77 67 5
a 67 68 2
a 68 67 2
a 68 78 8
a 78 68 8
a 68 69 4
a 69 68 4
a 69 79 7
a 79 69 7
a 69 70 6
a 70 69 6
a 70 80 8
a 80 70 8
a 71 81 5
a 81 71 5
a 71 72 8
a 72 71 8
a 72 82 1
a 82 72 1
a 72 73 10
a 73 72 10
a 73 83 7
a 83 73 7
a 73 74 5
a 74 73 5
a 74 84 7
a 84 74 7
a 74 75 8
a 75 74 8
a 75 85 5
a 85 75 5
a 75 76 7
a 76 75 7
a 76 86 10
a 86 76 10
a 76 77 9
a 77 76 9
a 77 87 10
a 87 77 10
a 77 78 1
a 78 77 1
a 78 88 6
a 88 78 6
a 78 79 5
a 79 78 5
a 79 89 5
a 89 79 5
a 79 80 6
a 80 79 6
a 80 90 10
a 90 80 10
a 81 91 10
a 91 81 10
a 81 82 8
a 82 81 8
a 82 92 3
a 92 82 3
a 82 83 5
a 83 82 5
a 83 93 10
a 93 83 10
a 83 84 4
a 84 83 4
a 84 94 4
a 94 84 4
a 84 85 8
a 85 84 8
a 85 95 5
a 95 85 5
a 85 86 8
a 86 85 8
a 86 96 2
a 96 86 2
a 86 87 7
a 87 86 7
a 87 97 7
a 97 87 7
a 87 88 6
a 88 87 6
a 88 98 6
a 98 88 6
a 88 89 3
a 89 88 3
a 89 99 3
a 99 89 3
a 89 90 3
a 90 89 3
a 90 100 8
a 100 90 8
a 91 92 8
a 92 91 8
a 92 93 7
a 93 92 7
a 93 94 5
a 94 93 5
a 94 95 6
a 95 94 6
a 95 96 9
a 96 95 9
a 96 97 10
a 97 96 10
a 97 98 2
a 98 97 2
a 98 99 4
a 99 98 4
a 99 100 8
a 100 99 8
